c Sudoku solution
p cnf 729 0
156 0
164 0
189 0
192 0
219 0
261 0
294 0
317 0
342 0
428 0
454 0
545 0
615 0
622 0
232 0
637 0
684 0
691 0
731 0
777 0
147 0
287 0
783 0
839 0
529 0
949 0
799 0
953 0
967 0
827 0
813 0
557 0
441 0
416 0
511 0
534 0
433 0
497 0
118 0
938 0
135 0
336 0
324 0
121 0
223 0
173 0
248 0
363 0
255 0
359 0
276 0
851 0
643 0
752 0
714 0
912 0
746 0
844 0
725 0
926 0
768 0
865 0
974 0
981 0
995 0
658 0
371 0
593 0
475 0
482 0
679 0
469 0
562 0
666 0
872 0
578 0
586 0
385 0
398 0
888 0
896 0
